benchmarks/VRPTW/TSPTW/ins/n150w20.002.txt
!! n150w20.002    18.93 969


CUST NO.   XCOORD.   YCOORD.    DEMAND   READY TIME   DUE DATE   SERVICE TIME


    1       7.00      16.00       0.00       0.00     981.00       0.00
    2       6.00       4.00       0.00     550.00     568.00       0.00
    3       7.00      44.00       0.00     748.00     771.00       0.00
    4      37.00      40.00       0.00     284.00     306.00       0.00
    5      27.00       0.00       0.00     100.00     110.00       0.00
    6      35.00       5.00       0.00     115.00     123.00       0.00
    7      11.00      14.00       0.00      70.00      90.00       0.00
    8      22.00       4.00       0.00      78.00     104.00       0.00
    9      43.00      27.00       0.00     302.00     316.00       0.00
   10      17.00      34.00       0.00     609.00     638.00       0.00
   11      15.00      14.00       0.00      60.00      92.00       0.00
   12      32.00      32.00       0.00     176.00     192.00       0.00
   13      44.00       4.00       0.00     357.00     394.00       0.00
   14      38.00      31.00       0.00     291.00     306.00       0.00
   15      31.00      25.00       0.00     169.00     180.00       0.00
   16      26.00      39.00       0.00     180.00     206.00       0.00
   17       2.00      37.00       0.00     675.00     692.00       0.00
   18      38.00      39.00       0.00     209.00     220.00       0.00
   19      28.00      47.00       0.00     259.00     295.00       0.00
   20      16.00      42.00       0.00     772.00     778.00       0.00
   21      50.00       8.00       0.00     351.00     361.00       0.00
   22      23.00      25.00       0.00      46.00      57.00       0.00
   23      34.00      36.00       0.00     171.00     187.00       0.00
   24      40.00      49.00       0.00     225.00     257.00       0.00
   25       8.00      16.00       0.00      52.00      83.00       0.00
   26       0.00      35.00       0.00     696.00     699.00       0.00
   27       6.00      29.00       0.00     689.00     710.00       0.00
   28       5.00      38.00       0.00     686.00     702.00       0.00
   29      44.00      47.00       0.00     229.00     242.00       0.00
   30      34.00       3.00       0.00     111.00     118.00       0.00
   31      22.00      17.00       0.00      31.00      44.00       0.00
   32       2.00      39.00       0.00     755.00     770.00       0.00
   33      50.00      43.00       0.00     237.00     267.00       0.00
   34      17.00      49.00       0.00     909.00     928.00       0.00
   35      35.00      10.00       0.00     123.00     141.00       0.00
   36      39.00      50.00       0.00     266.00     278.00       0.00
   37      27.00      12.00       0.00     503.00     528.00       0.00
   38      11.00      18.00       0.00       0.00      23.00       0.00
   39       5.00      50.00       0.00     805.00     825.00       0.00
   40      39.00       1.00       0.00     380.00     396.00       0.00
   41       6.00      41.00       0.00     670.00     700.00       0.00
   42       7.00      19.00       0.00       0.00       3.00       0.00
   43      40.00       5.00       0.00     371.00     380.00       0.00
   44       9.00      13.00       0.00     561.00     576.00       0.00
   45      20.00      38.00       0.00     647.00     684.00       0.00
   46       6.00       1.00       0.00     550.00     557.00       0.00
   47      15.00      24.00       0.00      16.00      30.00       0.00
   48      30.00       0.00       0.00     512.00     538.00       0.00
   49       8.00      31.00       0.00     702.00     717.00       0.00
   50      13.00      32.00       0.00     716.00     739.00       0.00
   51       4.00      27.00       0.00     700.00     726.00       0.00
   52      16.00      13.00       0.00     128.00     161.00       0.00
   53      32.00       0.00       0.00     106.00     109.00       0.00
   54       6.00       8.00       0.00     554.00     565.00       0.00
   55      31.00      32.00       0.00     175.00     179.00       0.00
   56      33.00      28.00       0.00     163.00     177.00       0.00
   57      12.00      16.00       0.00      59.00      81.00       0.00
   58      18.00      21.00       0.00       6.00      23.00       0.00
   59      42.00      40.00       0.00     207.00     228.00       0.00
   60      49.00      30.00       0.00     314.00     338.00       0.00
   61      33.00       7.00       0.00     106.00     126.00       0.00
   62      46.00      10.00       0.00     345.00     368.00       0.00
   63      43.00       6.00       0.00     358.00     381.00       0.00
   64      45.00      39.00       0.00     208.00     240.00       0.00
   65      17.00      33.00       0.00     618.00     645.00       0.00
   66      16.00       8.00       0.00      70.00      87.00       0.00
   67      13.00       0.00       0.00     537.00     551.00       0.00
   68      48.00      30.00       0.00     440.00     459.00       0.00
   69      17.00      44.00       0.00     663.00     680.00       0.00
   70      32.00      40.00       0.00     190.00     211.00       0.00
   71      24.00      21.00       0.00      29.00      56.00       0.00
   72      29.00      47.00       0.00     273.00     291.00       0.00
   73      31.00      40.00       0.00     637.00     664.00       0.00
   74      31.00      49.00       0.00     260.00     287.00       0.00
   75      43.00      46.00       0.00     232.00     240.00       0.00
   76      24.00      11.00       0.00     134.00     143.00       0.00
   77      26.00      19.00       0.00      18.00      34.00       0.00
   78      10.00      36.00       0.00     710.00     727.00       0.00
   79      45.00      30.00       0.00     295.00     326.00       0.00
   80      25.00      21.00       0.00      30.00      35.00       0.00
   81      44.00      17.00       0.00     331.00     359.00       0.00
   82      32.00      25.00       0.00     425.00     439.00       0.00
   83      44.00      46.00       0.00     229.00     256.00       0.00
   84      30.00      47.00       0.00     786.00     799.00       0.00
   85      15.00       2.00       0.00      88.00      91.00       0.00
   86      32.00      34.00       0.00     167.00     193.00       0.00
   87      49.00      15.00       0.00     333.00     370.00       0.00
   88      25.00      23.00       0.00      27.00      47.00       0.00
   89      45.00       1.00       0.00     381.00     391.00       0.00
   90       9.00      36.00       0.00     727.00     752.00       0.00
   91      30.00      41.00       0.00     186.00     214.00       0.00
   92      25.00      28.00       0.00      40.00      55.00       0.00
   93      21.00      25.00       0.00      19.00      26.00       0.00
   94      26.00      12.00       0.00     131.00     138.00       0.00
   95      14.00      26.00       0.00     725.00     743.00       0.00
   96      38.00      10.00       0.00     478.00     490.00       0.00
   97      38.00      38.00       0.00     202.00     230.00       0.00
   98      34.00      49.00       0.00     277.00     298.00       0.00
   99      37.00      40.00       0.00     196.00     232.00       0.00
  100      48.00       9.00       0.00     341.00     358.00       0.00
  101      37.00      20.00       0.00     411.00     439.00       0.00
  102      14.00      34.00       0.00     619.00     652.00       0.00
  103      26.00      26.00       0.00      40.00      63.00       0.00
  104      12.00      20.00       0.00       0.00      12.00       0.00
  105      17.00      21.00       0.00      57.00      59.00       0.00
  106      35.00      37.00       0.00     205.00     214.00       0.00
  107      43.00       8.00       0.00     350.00     374.00       0.00
  108      33.00      50.00       0.00     255.00     276.00       0.00
  109      21.00      14.00       0.00     126.00     147.00       0.00
  110      34.00      43.00       0.00     282.00     292.00       0.00
  111      47.00      35.00       0.00     313.00     340.00       0.00
  112      47.00      20.00       0.00     332.00     348.00       0.00
  113      28.00      37.00       0.00     176.00     197.00       0.00
  114      12.00      24.00       0.00       0.00      22.00       0.00
  115      34.00      19.00       0.00     424.00     442.00       0.00
  116      30.00      10.00       0.00     120.00     149.00       0.00
  117      25.00      27.00       0.00     615.00     618.00       0.00
  118       4.00       6.00       0.00     547.00     573.00       0.00
  119      31.00      23.00       0.00     150.00     176.00       0.00
  120      22.00      48.00       0.00     765.00     790.00       0.00
  121      42.00       8.00       0.00     381.00     404.00       0.00
  122       8.00      31.00       0.00     724.00     733.00       0.00
  123      26.00      40.00       0.00     639.00     665.00       0.00
  124      23.00      43.00       0.00     641.00     661.00       0.00
  125       7.00       9.00       0.00     960.00     974.00       0.00
  126      44.00       8.00       0.00     365.00     380.00       0.00
  127      47.00       7.00       0.00     389.00     401.00       0.00
  128       6.00      10.00       0.00     562.00     579.00       0.00
  129      21.00      38.00       0.00     626.00     653.00       0.00
  130      25.00      15.00       0.00     149.00     167.00       0.00
  131      31.00      31.00       0.00     160.00     196.00       0.00
  132      48.00      41.00       0.00     226.00     228.00       0.00
  133       1.00      40.00       0.00     690.00     695.00       0.00
  134      45.00      41.00       0.00     211.00     234.00       0.00
  135      44.00      39.00       0.00     229.00     239.00       0.00
  136      31.00      19.00       0.00     147.00     175.00       0.00
  137      40.00       5.00       0.00     390.00     404.00       0.00
  138      44.00      19.00       0.00     417.00     434.00       0.00
  139      29.00      38.00       0.00     180.00     209.00       0.00
  140      12.00      26.00       0.00     840.00     845.00       0.00
  141      39.00      19.00       0.00     443.00     448.00       0.00
  142      34.00       7.00       0.00     109.00     139.00       0.00
  143      22.00       5.00       0.00     586.00     615.00       0.00
  144      10.00      42.00       0.00     672.00     682.00       0.00
  145       4.00       4.00       0.00     559.00     593.00       0.00
  146      46.00      11.00       0.00     402.00     428.00       0.00
  147      32.00      35.00       0.00     185.00     203.00       0.00
  148      14.00      44.00       0.00     657.00     683.00       0.00
  149      16.00      11.00       0.00      69.00      88.00       0.00
  150      48.00       2.00       0.00     485.00     505.00       0.00
  151      49.00      16.00       0.00     874.00     878.00       0.00
  999       0.00       0.00       0.00       0.00       0.00       0.00
