benchmarks/VRPTW/TSPTW/solution/n150w20.002.txt.solution
1 42 38 104 114 47 58 93 80 77 31 71 88 103 92 22 105 25 7 57 11 149 66 85 8 5 53 30 6 61 142 35 116 94 76 52 109 130 136 119 15 56 131 55 12 86 23 147 139 113 16 91 70 106 99 18 97 59 64 132 135 134 75 29 83 33 24 36 108 98 74 72 19 110 4 14 9 79 111 60 112 81 87 21 100 62 126 107 63 43 13 89 40 137 121 127 146 138 82 115 101 141 68 96 150 48 37 67 46 2 145 118 54 128 44 143 117 65 102 10 129 45 124 73 123 69 148 144 41 28 17 133 26 51 27 49 78 122 95 50 90 32 3 20 120 84 39 140 151 34 125 
864
